70
    1    71    69
    2    19    14
    3    55    54
    4    25    25
    5    29    22
    6    32    25
    7    12    15
    8    63    65
    9    13    11
   10    13    20
   11     6    11
   12    58    63
   13    63    70
   14    11    16
   15    40    44
   16    30    30
   17     9     3
   18    67    70
   19    26    33
   20    44    48
   21    20    27
   22    58    59
   23    69    68
   24    72    70
   25    16    16
   26    26    32
   27    44    48
   28     3     1
   29    47    45
   30    30    29
   31    74    67
   32    17    19
   33    62    59
   34    59    61
   35    19    14
   36    15    13
   37    46    46
   38    54    50
   39     1     2
   40    47    54
   41    48    45
   42     1     5
   43     4     8
   44    52    49
   45    40    35
   46     1     2
   47    54    61
   48    53    55
   49    36    33
   50    59    60
   51     7    10
   52    57    62
   53    44    51
   54    19    20
   55    21    18
   56    41    43
   57    20    27
   58     1     2
   59    61    56
   60    45    46
   61     4    10
   62    29    36
   63    33    31
   64    12    16
   65    45    45
   66    60    60
   67    60    66
   68    66    66
   69    47    40
   70    19    17
71
